param c : 1 2 3 4 5 6 7 8 9 10 :=
1 7 3 10 10 2 8 6 4 5 5
2 7 7 10 5 2 8 6 3 9 9
3 7 3 4 6 3 2 4 9 7 8 
4 6 2 7 6 4 7 5 10 7 8 
5 2 4 3 4 9 6 4 9 8 4
6 7 5 2 9 8 9 5 6 10 10
7 5 2 3 7 9 9 4 9 6 3
8 5 2 9 4 2 8 6 9 3 4
9 9 6 5 4 5 6 8 9 6 6
10 8 8 7 7 3 5 8 3 9 9 ;
